[1, 2, 3, 20, 23, 7, 10, 8, 6, 9, 13, 11, 12, 13, 13, 19, 18, 17, 20, 19, 22, 19, 21, 28, 31, 33, 30, 29, 28, 23, 32, 31, 33, 36, 38, 39, 41, 40, 37, 35, 36, 42, 43, 44, 47, 45, 43, 40, 50, 51, 50, 52, 54, 52, 55, 56, 58, 57, 57, 56, 64, 62, 63, 64, 64, 65, 66, 68, 69, 70, 71, 73, 71, 72, 83, 85, 76, 81, 78, 79, 81, 83, 82, 82, 87, 82, 83, 89, 89, 90, 92, 91, 93, 92, 95, 94, 94, 97, 94, 98, 101, 102, 101, 102, 99, 103, 109, 107, 108, 101, 103, 90, 113, 114, 115, 117, 116, 117, 120, 122, 119, 122, 124, 123, 125, 122, 123, 124, 124, 134, 132, 130, 131, 133, 135, 136, 137, 138, 139, 141, 142, 143, 142, 144, 143, 147, 141, 143, 143, 147, 151, 138, 137, 154, 155, 154, 159, 159, 159, 160, 161, 162, 164, 171, 170, 167, 167, 168, 170, 171, 170, 172, 169, 168, 171, 167, 180, 179, 181, 177, 178, 177, 183, 184, 185, 186, 189, 188, 190, 190, 191, 192, 193, 194, 195, 197, 196, 200, 198, 202, 201, 200, 203, 204, 205, 205, 206, 207, 209, 207, 212, 212, 213, 217, 221, 217, 219, 223, 218, 217, 220, 221, 222, 222, 223, 225, 226, 228, 229, 232, 232, 233, 231, 236, 239, 238, 233, 231, 239, 246, 242, 241, 243, 244, 247, 240, 245, 246, 237, 236, 251, 251, 256, 251, 258, 256, 257, 254, 252, 257, 253, 258, 263, 264, 264, 267, 267, 268, 270, 269, 273, 272, 276, 275, 274, 278, 277, 278, 279, 280]
[1, 5, 6, 12, 12, 12, 16, 17, 18, 18, 18, 19, 19, 27, 27, 28, 38, 39, 39, 41, 42, 42, 43, 44, 46, 50, 51, 51, 53, 55, 55, 56, 56, 61, 64, 65, 70, 70, 71, 75, 77, 84, 89, 89, 91, 91, 93, 93, 93, 96, 97, 98, 100, 100, 100, 102, 102, 112, 113, 114, 116, 116, 122, 122, 123, 123, 123, 124, 130, 132, 133, 137, 137, 138, 153, 153, 159, 160, 163, 166, 166, 166, 169, 169, 169, 170, 170, 170, 171, 177, 178, 179, 180, 185, 187, 189, 189, 192, 193, 194, 205, 206, 206, 211, 211, 217, 222, 222, 225, 228, 230, 230, 231, 231, 240, 244, 250, 250, 250, 252, 253, 255, 255, 257, 257, 262, 263, 263, 272, 273, 276, 277, 277, 278, 281, 284, 287, 290, 295, 298, 298, 299, 306, 306, 308, 310, 322, 325, 329, 330, 330, 332, 335, 335, 336, 341, 343, 344, 347, 348, 350, 351, 354, 356, 357, 359, 359, 363, 367, 367, 369, 370, 370, 377, 379, 379, 379, 380, 380, 381, 381, 391, 394, 397, 398, 400, 400, 400, 409, 411, 413, 414, 416, 416, 417, 420, 420, 421, 421, 421, 421, 432, 432, 442, 445, 445, 445, 450, 455, 455, 456, 457, 458, 459, 461, 463, 466, 467, 468, 468, 470, 472, 473, 474, 478, 478, 479, 484, 485, 485, 490, 490, 495, 495, 495, 497, 498, 499, 499, 500, 500, 503, 509, 509, 510, 510, 511, 511, 515, 517, 517, 518, 519, 520, 522, 525, 530, 531, 535, 535, 542, 542, 545, 545, 546, 548, 552, 553, 554, 555, 557, 559, 564, 565, 566, 567, 569, 574, 576, 576, 576, 586, 588, 588, 589, 594, 595, 596, 597, 597, 599, 600, 600, 601, 602, 609, 609, 611, 613, 613, 614, 614, 615, 619, 620, 621, 621, 621, 622, 627, 630, 639, 639, 639, 640, 640, 640, 642, 644, 647, 647, 650, 656, 658, 658, 658, 659, 659, 664, 665, 671, 673, 674, 674, 677, 680, 680, 681, 681, 681, 687, 688, 692, 693, 698, 698, 699, 699, 701, 712, 717, 718, 719, 721, 724, 724, 724, 725, 725, 727, 727, 727, 735, 737, 738, 746, 752, 753, 760, 763, 766, 769, 769, 774, 774, 774, 777, 780, 780, 782, 783, 785, 786, 788, 788, 789, 789, 797, 798, 800, 802, 809, 811, 813, 813, 820, 824, 824, 826, 827, 829, 831, 832, 833, 835, 835, 836, 837, 842, 843, 845, 848, 849, 849, 849, 854, 859, 859, 866, 868, 871, 872, 872, 875, 879, 879, 881, 887, 888, 888, 890, 892, 892, 893, 893, 899, 902, 904, 905, 912, 915, 918, 918, 918, 923, 925, 925, 927, 930, 930, 930, 933, 943, 950, 955, 958, 958, 958, 961, 966, 968, 969, 971, 972, 973, 973, 974, 974, 975, 977, 977, 978, 978, 980, 983, 983, 987, 998, 1004, 1004, 1005, 1007, 1007, 1007, 1008, 1015, 1016, 1017, 1020, 1021, 1024, 1030, 1031, 1034, 1037, 1039, 1040, 1043, 1043, 1045, 1048, 1048, 1049, 1055, 1057, 1057, 1058, 1058, 1059, 1059, 1061, 1064, 1065, 1068, 1068, 1069, 1069, 1073, 1074, 1075, 1075, 1078, 1079, 1088, 1090, 1099, 1100, 1100, 1103, 1103, 1105, 1108, 1111, 1112, 1113, 1115, 1116, 1118, 1121, 1123, 1124, 1125, 1127, 1128, 1128, 1128, 1134, 1134, 1134, 1135, 1135, 1136, 1137, 1138, 1138, 1144, 1145, 1147, 1148, 1148, 1150, 1151, 1151, 1152, 1153, 1155, 1155, 1156, 1157, 1166, 1171, 1171, 1172, 1172, 1177, 1178, 1183, 1184, 1186, 1186, 1187, 1188, 1191, 1194, 1196, 1196, 1198, 1198, 1198, 1202, 1204, 1204, 1205, 1205, 1209, 1209, 1209, 1210, 1212, 1213, 1216, 1216, 1216, 1217, 1217, 1218, 1218, 1224, 1228, 1230, 1231, 1232, 1232, 1234, 1235, 1237, 1237, 1237, 1238, 1238, 1240, 1246, 1247, 1249, 1252, 1252, 1253, 1253, 1254, 1259, 1262, 1262, 1266, 1270, 1276, 1282, 1282, 1282, 1284, 1294, 1295, 1296, 1298, 1299, 1301, 1308, 1309, 1311, 1315, 1315, 1316, 1317, 1319, 1320, 1320, 1321, 1322, 1322, 1324, 1327, 1327, 1328, 1332, 1332, 1332, 1333, 1334, 1336, 1336, 1337, 1337, 1340, 1344, 1346, 1346, 1347, 1347, 1348, 1348, 1351, 1351, 1353, 1355, 1359, 1362, 1369, 1372, 1372, 1373, 1373, 1378, 1385, 1388, 1391, 1392, 1394, 1395, 1397, 1405, 1406, 1412, 1413, 1413, 1413, 1414, 1414, 1416, 1423, 1425, 1425, 1426, 1427, 1427, 1431, 1433, 1434, 1434, 1435, 1439, 1444, 1444, 1448, 1449, 1451, 1451, 1452, 1457, 1460, 1463, 1467, 1470, 1472, 1473, 1476, 1476, 1476, 1479, 1483, 1483, 1487, 1491, 1495, 1495, 1495, 1497, 1497, 1501, 1502, 1503, 1508, 1510, 1511, 1511, 1513, 1517, 1517, 1518, 1518, 1518, 1519, 1526, 1528, 1532, 1532, 1541, 1541, 1548, 1548, 1549, 1553, 1553, 1553, 1554, 1555, 1556, 1562, 1562, 1563, 1564, 1564, 1564, 1575, 1577, 1580, 1583, 1589, 1592, 1595, 1599, 1599, 1600, 1601, 1601, 1615, 1615, 1619, 1623, 1625, 1625, 1627, 1627, 1631, 1632, 1633, 1633, 1634, 1635, 1639, 1640, 1640, 1645, 1645, 1645, 1647, 1648, 1650, 1650, 1661, 1661, 1662, 1668, 1670, 1671, 1675, 1676, 1680, 1682, 1683, 1684, 1686, 1686, 1686, 1702, 1704, 1704, 1708, 1710, 1711, 1714, 1716, 1716, 1717, 1718, 1720, 1724, 1728, 1729, 1729, 1730, 1730, 1736, 1737, 1737, 1737, 1738, 1739, 1741, 1743, 1745, 1746, 1752, 1755, 1755, 1755, 1758, 1762, 1762, 1763, 1763, 1764, 1765, 1765, 1767, 1767, 1767, 1768, 1770, 1772, 1774, 1774, 1774, 1776, 1776, 1780, 1782, 1786, 1789, 1793, 1795, 1795, 1795, 1807, 1809, 1810, 1810, 1811, 1811, 1815, 1815, 1817, 1827, 1827, 1828, 1832, 1832, 1832, 1834, 1843, 1843, 1843, 1850, 1850, 1851, 1852, 1854, 1857, 1858, 1862, 1867, 1869, 1870, 1871, 1874, 1876, 1877, 1882, 1886, 1890, 1890, 1890, 1891, 1896, 1896, 1899, 1904, 1904, 1905, 1905, 1911, 1913, 1914, 1915, 1918, 1920, 1925, 1929, 1929, 1930, 1930, 1941, 1942, 1943, 1945, 1946, 1948, 1952, 1953, 1954, 1955, 1958, 1961, 1962, 1964, 1970, 1971, 1971, 1971, 1973, 1974, 1975, 1975, 1982, 1983, 1983, 1985, 1985, 1987, 1989, 1990, 1991, 1992, 1992, 1993, 1994, 2002, 2002, 2004, 2004, 2007, 2008, 2008, 2010, 2014, 2016, 2016, 2016, 2020, 2023, 2023, 2024, 2025, 2031, 2042, 2042, 2047, 2050, 2053, 2053, 2053, 2054, 2054, 2055, 2055, 2059, 2061, 2065, 2066, 2069, 2069, 2071, 2072, 2075, 2075, 2077, 2083, 2084, 2090, 2090, 2093, 2093, 2094, 2094, 2095, 2095, 2095, 2095, 2096, 2111, 2111, 2111, 2114, 2116, 2119, 2119, 2119, 2120, 2120, 2123, 2123, 2123, 2124, 2129, 2129, 2130, 2131, 2132, 2143, 2144, 2146, 2153, 2156, 2158, 2161, 2165, 2169, 2169, 2169, 2172, 2175, 2175, 2180, 2181, 2183, 2183, 2189, 2193, 2195, 2196, 2197, 2203, 2203, 2203, 2205, 2215, 2216, 2216, 2219, 2219, 2225, 2227, 2231, 2232, 2237, 2238, 2243, 2252, 2253, 2254, 2254, 2260, 2271, 2271, 2272, 2273, 2278, 2281, 2281, 2282, 2283, 2283, 2288, 2288, 2294, 2296, 2299, 2302, 2302, 2303, 2307, 2316, 2318, 2325, 2325, 2325, 2330, 2332, 2332, 2332, 2334, 2334, 2338, 2340, 2344, 2346, 2351, 2353, 2353, 2353, 2355, 2355, 2355, 2361, 2362, 2364, 2365, 2367, 2372, 2372, 2390, 2390, 2390, 2391, 2392, 2395, 2401, 2401, 2401, 2402, 2402, 2402, 2409, 2411, 2412, 2417, 2419, 2421, 2421, 2424, 2425, 2426, 2429, 2431, 2431, 2433, 2434, 2435, 2436, 2436, 2438, 2438, 2440, 2443, 2443, 2448, 2448, 2448, 2449, 2451, 2452, 2452, 2463, 2463, 2468, 2474, 2475, 2478, 2482, 2482, 2482, 2483, 2485, 2487, 2487, 2488, 2488, 2489, 2489, 2494, 2495, 2495, 2499, 2500, 2503, 2504, 2505, 2508, 2509, 2509, 2512, 2513, 2521, 2522, 2527, 2529, 2529, 2529, 2532, 2533, 2533, 2538, 2538, 2539, 2540, 2541, 2541, 2545, 2546, 2546, 2548, 2549, 2551, 2552, 2557, 2561, 2565, 2567, 2567, 2568, 2574, 2574, 2574, 2578, 2580, 2581, 2581, 2582, 2591, 2591, 2597, 2599, 2599, 2600, 2600, 2604, 2604, 2604, 2607, 2609, 2612, 2612, 2617, 2618, 2623, 2627, 2627, 2629, 2630, 2632, 2632, 2632, 2633, 2633, 2634, 2634, 2634, 2642, 2643, 2646, 2648, 2648, 2653, 2653, 2653, 2653, 2654, 2657, 2657, 2661, 2664, 2664, 2672, 2674, 2679, 2689, 2690, 2691, 2693, 2694, 2700, 2700, 2702, 2704, 2705, 2713, 2714, 2717, 2717, 2719, 2728, 2730, 2731, 2731, 2732, 2732, 2733, 2733, 2735, 2736, 2738, 2739, 2747, 2748, 2749, 2749, 2750, 2752, 2754, 2762, 2767, 2767, 2773, 2774, 2774, 2778, 2779, 2780, 2782, 2784, 2786]
